100
32
4
4
5
10
1
16
3
6
2
6
3
1
1
1
4
2
1
2
13
9
1
12
21
4
1
12
11
13
25
15
9
10
3
1
13
3
11
12
12
1
14
10
3
14
12
11
26
2
12
1
1
1
21
2
5
2
10
3
1
12
1
10
1
1
10
2
1
1
1
1
17
2
1
1
7
1
17
6
2
3
1
2
2
1
5
19
16
2
2
1
2
1
1
1
3
1
1
1
2
1